0
3032 0
25282 10805 0
99623 67938 24596 0
209741 162683 90162 20927 0
410137 342689 231817 105517 35168 0
541103 463222 332606 176371 78644 9125 0
905061 803337 627812 404461 247844 96937 47290 0
1057110 946972 755489 507788 328493 150356 85798 6152 0
1441298 1312298 1085087 783067 553709 313918 216183 63584 30211 0
16844 26510 60773 150868 269068 498626 638193 1032927 1190097 1588111 0
26688 15918 11658 44032 111202 271441 376097 690067 819245 1154298 34536 0
42009 24788 8414 22861 74763 212454 306360 594377 715111 1030944 60208 3637 0
101112 72195 33573 13770 33007 133743 206555 450209 553306 830410 122974 27799 12855 0
189454 145590 78935 17786 2177 50265 98341 281589 365371 598356 236883 90522 58527 20028 0